p cnf 31 44
-23 5 0 
-20 6 0 
-4 31 0 
-4 13 0 
-3 16 0 
-8 28 0 
-21 11 12 0 
-2 26 0 
-13 4 0 
-6 20 0 
-12 17 0 
-5 23 0 
-27 7 0 
-8 31 0 
-19 1 0 
-10 15 0 
-4 30 0 
-24 12 0 
-12 24 0 
4 10 0 
-14 3 0 
-26 2 0 
-7 27 0 
2 6 11 0 
-12 21 0 
-7 15 0 
-10 22 0 
-30 4 0 
-15 7 10 0 
-31 4 8 0 
-16 3 0 
-17 12 0 
-22 10 0 
-1 19 0 
-29 5 9 0 
-9 18 0 
-25 9 0 
-18 9 0 
-9 29 0 
-11 21 0 
-28 8 0 
-5 29 0 
-9 25 0 
-3 14 0 
